NAME plusBCPIns_12_9_8.txt
ROWS
 N cost
 L KL
 L C0,4
 L C1,4
 L C1,6
 L C1,11
 L C2,3
 L C3,7
 L C4,11
 L E0,1
 L E0,2
 L E0,3
 L E0,5
 L E0,6
 L E0,7
 L E0,8
 L E0,9
 L E0,10
 L E0,11
 L E1,2
 L E1,3
 L E1,5
 L E1,7
 L E1,8
 L E1,9
 L E1,10
 L E2,4
 L E2,5
 L E2,6
 L E2,7
 L E2,8
 L E2,9
 L E2,10
 L E2,11
 L E3,4
 L E3,5
 L E3,6
 L E3,8
 L E3,9
 L E3,10
 L E3,11
 L E4,5
 L E4,6
 L E4,7
 L E4,8
 L E4,9
 L E4,10
 L E5,6
 L E5,7
 L E5,8
 L E5,9
 L E5,10
 L E5,11
 L E6,7
 L E6,8
 L E6,9
 L E6,10
 L E6,11
 L E7,8
 L E7,9
 L E7,10
 L E7,11
 L E8,9
 L E8,10
 L E8,11
 L E9,10
 L E9,11
 L E10,11
 L S0,1,4
 L S0,11,4
 L S2,7,3
 L S4,6,1
 L S6,11,1
 L I0,1
 L I0,2
 L I0,3
 L I0,5
 L I0,6
 L I0,7
 L I0,8
 L I0,9
 L I0,10
 L I0,11
 L I1,2
 L I1,3
 L I1,5
 L I1,7
 L I1,8
 L I1,9
 L I1,10
 L I2,4
 L I2,5
 L I2,6
 L I2,7
 L I2,8
 L I2,9
 L I2,10
 L I2,11
 L I3,4
 L I3,5
 L I3,6
 L I3,8
 L I3,9
 L I3,10
 L I3,11
 L I4,5
 L I4,6
 L I4,7
 L I4,8
 L I4,9
 L I4,10
 L I5,6
 L I5,7
 L I5,8
 L I5,9
 L I5,10
 L I5,11
 L I6,7
 L I6,8
 L I6,9
 L I6,10
 L I6,11
 L I7,8
 L I7,9
 L I7,10
 L I7,11
 L I8,9
 L I8,10
 L I8,11
 L I9,10
 L I9,11
 L I10,11
COLUMNS
 w0,1 cost 0
 w0,1 KL 1
 w0,1 I0,1 1
 w0,2 cost 0
 w0,2 KL 1
 w0,2 I0,2 1
 w0,3 cost 0
 w0,3 KL 1
 w0,3 I0,3 1
 w0,5 cost 0
 w0,5 KL 1
 w0,5 I0,5 1
 w0,6 cost 0
 w0,6 KL 1
 w0,6 I0,6 1
 w0,7 cost 0
 w0,7 KL 1
 w0,7 I0,7 1
 w0,8 cost 0
 w0,8 KL 1
 w0,8 I0,8 1
 w0,9 cost 0
 w0,9 KL 1
 w0,9 I0,9 1
 w0,10 cost 0
 w0,10 KL 1
 w0,10 I0,10 1
 w0,11 cost 0
 w0,11 KL 1
 w0,11 I0,11 1
 w1,2 cost 0
 w1,2 KL 1
 w1,2 I1,2 1
 w1,3 cost 0
 w1,3 KL 1
 w1,3 I1,3 1
 w1,5 cost 0
 w1,5 KL 1
 w1,5 I1,5 1
 w1,7 cost 0
 w1,7 KL 1
 w1,7 I1,7 1
 w1,8 cost 0
 w1,8 KL 1
 w1,8 I1,8 1
 w1,9 cost 0
 w1,9 KL 1
 w1,9 I1,9 1
 w1,10 cost 0
 w1,10 KL 1
 w1,10 I1,10 1
 w2,4 cost 0
 w2,4 KL 1
 w2,4 I2,4 1
 w2,5 cost 0
 w2,5 KL 1
 w2,5 I2,5 1
 w2,6 cost 0
 w2,6 KL 1
 w2,6 I2,6 1
 w2,7 cost 0
 w2,7 KL 1
 w2,7 I2,7 1
 w2,8 cost 0
 w2,8 KL 1
 w2,8 I2,8 1
 w2,9 cost 0
 w2,9 KL 1
 w2,9 I2,9 1
 w2,10 cost 0
 w2,10 KL 1
 w2,10 I2,10 1
 w2,11 cost 0
 w2,11 KL 1
 w2,11 I2,11 1
 w3,4 cost 0
 w3,4 KL 1
 w3,4 I3,4 1
 w3,5 cost 0
 w3,5 KL 1
 w3,5 I3,5 1
 w3,6 cost 0
 w3,6 KL 1
 w3,6 I3,6 1
 w3,8 cost 0
 w3,8 KL 1
 w3,8 I3,8 1
 w3,9 cost 0
 w3,9 KL 1
 w3,9 I3,9 1
 w3,10 cost 0
 w3,10 KL 1
 w3,10 I3,10 1
 w3,11 cost 0
 w3,11 KL 1
 w3,11 I3,11 1
 w4,5 cost 0
 w4,5 KL 1
 w4,5 I4,5 1
 w4,6 cost 0
 w4,6 KL 1
 w4,6 I4,6 1
 w4,7 cost 0
 w4,7 KL 1
 w4,7 I4,7 1
 w4,8 cost 0
 w4,8 KL 1
 w4,8 I4,8 1
 w4,9 cost 0
 w4,9 KL 1
 w4,9 I4,9 1
 w4,10 cost 0
 w4,10 KL 1
 w4,10 I4,10 1
 w5,6 cost 0
 w5,6 KL 1
 w5,6 I5,6 1
 w5,7 cost 0
 w5,7 KL 1
 w5,7 I5,7 1
 w5,8 cost 0
 w5,8 KL 1
 w5,8 I5,8 1
 w5,9 cost 0
 w5,9 KL 1
 w5,9 I5,9 1
 w5,10 cost 0
 w5,10 KL 1
 w5,10 I5,10 1
 w5,11 cost 0
 w5,11 KL 1
 w5,11 I5,11 1
 w6,7 cost 0
 w6,7 KL 1
 w6,7 I6,7 1
 w6,8 cost 0
 w6,8 KL 1
 w6,8 I6,8 1
 w6,9 cost 0
 w6,9 KL 1
 w6,9 I6,9 1
 w6,10 cost 0
 w6,10 KL 1
 w6,10 I6,10 1
 w6,11 cost 0
 w6,11 KL 1
 w6,11 I6,11 1
 w7,8 cost 0
 w7,8 KL 1
 w7,8 I7,8 1
 w7,9 cost 0
 w7,9 KL 1
 w7,9 I7,9 1
 w7,10 cost 0
 w7,10 KL 1
 w7,10 I7,10 1
 w7,11 cost 0
 w7,11 KL 1
 w7,11 I7,11 1
 w8,9 cost 0
 w8,9 KL 1
 w8,9 I8,9 1
 w8,10 cost 0
 w8,10 KL 1
 w8,10 I8,10 1
 w8,11 cost 0
 w8,11 KL 1
 w8,11 I8,11 1
 w9,10 cost 0
 w9,10 KL 1
 w9,10 I9,10 1
 w9,11 cost 0
 w9,11 KL 1
 w9,11 I9,11 1
 w10,11 cost 0
 w10,11 KL 1
 w10,11 I10,11 1
 y0,1 cost 0
 y0,1 E0,1 -1
 y0,1 I0,1 1
 y0,1 S0,1,4 -1
 y0,2 cost 0
 y0,2 E0,2 -1
 y0,2 I0,2 1
 y0,3 cost 0
 y0,3 E0,3 -1
 y0,3 I0,3 1
 y0,5 cost 0
 y0,5 E0,5 -1
 y0,5 I0,5 1
 y0,6 cost 0
 y0,6 E0,6 -1
 y0,6 I0,6 1
 y0,7 cost 0
 y0,7 E0,7 -1
 y0,7 I0,7 1
 y0,8 cost 0
 y0,8 E0,8 -1
 y0,8 I0,8 1
 y0,9 cost 0
 y0,9 E0,9 -1
 y0,9 I0,9 1
 y0,10 cost 0
 y0,10 E0,10 -1
 y0,10 I0,10 1
 y0,11 cost 0
 y0,11 E0,11 -1
 y0,11 I0,11 1
 y0,11 S0,11,4 -1
 y1,2 cost 0
 y1,2 E1,2 -1
 y1,2 I1,2 1
 y1,3 cost 0
 y1,3 E1,3 -1
 y1,3 I1,3 1
 y1,5 cost 0
 y1,5 E1,5 -1
 y1,5 I1,5 1
 y1,7 cost 0
 y1,7 E1,7 -1
 y1,7 I1,7 1
 y1,8 cost 0
 y1,8 E1,8 -1
 y1,8 I1,8 1
 y1,9 cost 0
 y1,9 E1,9 -1
 y1,9 I1,9 1
 y1,10 cost 0
 y1,10 E1,10 -1
 y1,10 I1,10 1
 y2,4 cost 0
 y2,4 E2,4 -1
 y2,4 I2,4 1
 y2,5 cost 0
 y2,5 E2,5 -1
 y2,5 I2,5 1
 y2,6 cost 0
 y2,6 E2,6 -1
 y2,6 I2,6 1
 y2,7 cost 0
 y2,7 E2,7 -1
 y2,7 I2,7 1
 y2,7 S2,7,3 -1
 y2,8 cost 0
 y2,8 E2,8 -1
 y2,8 I2,8 1
 y2,9 cost 0
 y2,9 E2,9 -1
 y2,9 I2,9 1
 y2,10 cost 0
 y2,10 E2,10 -1
 y2,10 I2,10 1
 y2,11 cost 0
 y2,11 E2,11 -1
 y2,11 I2,11 1
 y3,4 cost 0
 y3,4 E3,4 -1
 y3,4 I3,4 1
 y3,5 cost 0
 y3,5 E3,5 -1
 y3,5 I3,5 1
 y3,6 cost 0
 y3,6 E3,6 -1
 y3,6 I3,6 1
 y3,8 cost 0
 y3,8 E3,8 -1
 y3,8 I3,8 1
 y3,9 cost 0
 y3,9 E3,9 -1
 y3,9 I3,9 1
 y3,10 cost 0
 y3,10 E3,10 -1
 y3,10 I3,10 1
 y3,11 cost 0
 y3,11 E3,11 -1
 y3,11 I3,11 1
 y4,5 cost 0
 y4,5 E4,5 -1
 y4,5 I4,5 1
 y4,6 cost 0
 y4,6 E4,6 -1
 y4,6 I4,6 1
 y4,6 S4,6,1 -1
 y4,7 cost 0
 y4,7 E4,7 -1
 y4,7 I4,7 1
 y4,8 cost 0
 y4,8 E4,8 -1
 y4,8 I4,8 1
 y4,9 cost 0
 y4,9 E4,9 -1
 y4,9 I4,9 1
 y4,10 cost 0
 y4,10 E4,10 -1
 y4,10 I4,10 1
 y5,6 cost 0
 y5,6 E5,6 -1
 y5,6 I5,6 1
 y5,7 cost 0
 y5,7 E5,7 -1
 y5,7 I5,7 1
 y5,8 cost 0
 y5,8 E5,8 -1
 y5,8 I5,8 1
 y5,9 cost 0
 y5,9 E5,9 -1
 y5,9 I5,9 1
 y5,10 cost 0
 y5,10 E5,10 -1
 y5,10 I5,10 1
 y5,11 cost 0
 y5,11 E5,11 -1
 y5,11 I5,11 1
 y6,7 cost 0
 y6,7 E6,7 -1
 y6,7 I6,7 1
 y6,8 cost 0
 y6,8 E6,8 -1
 y6,8 I6,8 1
 y6,9 cost 0
 y6,9 E6,9 -1
 y6,9 I6,9 1
 y6,10 cost 0
 y6,10 E6,10 -1
 y6,10 I6,10 1
 y6,11 cost 0
 y6,11 E6,11 -1
 y6,11 I6,11 1
 y6,11 S6,11,1 -1
 y7,8 cost 0
 y7,8 E7,8 -1
 y7,8 I7,8 1
 y7,9 cost 0
 y7,9 E7,9 -1
 y7,9 I7,9 1
 y7,10 cost 0
 y7,10 E7,10 -1
 y7,10 I7,10 1
 y7,11 cost 0
 y7,11 E7,11 -1
 y7,11 I7,11 1
 y8,9 cost 0
 y8,9 E8,9 -1
 y8,9 I8,9 1
 y8,10 cost 0
 y8,10 E8,10 -1
 y8,10 I8,10 1
 y8,11 cost 0
 y8,11 E8,11 -1
 y8,11 I8,11 1
 y9,10 cost 0
 y9,10 E9,10 -1
 y9,10 I9,10 1
 y9,11 cost 0
 y9,11 E9,11 -1
 y9,11 I9,11 1
 y10,11 cost 0
 y10,11 E10,11 -1
 y10,11 I10,11 1
 x0 cost 1
 x0 E0,1 1 
 x0 E0,2 1 
 x0 E0,3 1 
 x0 E0,5 1 
 x0 E0,6 1 
 x0 E0,7 1 
 x0 E0,8 1 
 x0 E0,9 1 
 x0 E0,10 1 
 x0 E0,11 1 
 x0 S0,1,4 1
 x0 S0,11,4 1
 x0 C0,4 1 
 x1 cost 1
 x1 E0,1 1 
 x1 E1,2 1 
 x1 E1,3 1 
 x1 E1,5 1 
 x1 E1,7 1 
 x1 E1,8 1 
 x1 E1,9 1 
 x1 E1,10 1 
 x1 S0,1,4 1
 x1 S4,6,1 1
 x1 S6,11,1 1
 x1 C1,4 1 
 x1 C1,6 1 
 x1 C1,11 1 
 x2 cost 1
 x2 E0,2 1 
 x2 E1,2 1 
 x2 E2,4 1 
 x2 E2,5 1 
 x2 E2,6 1 
 x2 E2,7 1 
 x2 E2,8 1 
 x2 E2,9 1 
 x2 E2,10 1 
 x2 E2,11 1 
 x2 S2,7,3 1
 x2 C2,3 1 
 x3 cost 1
 x3 E0,3 1 
 x3 E1,3 1 
 x3 E3,4 1 
 x3 E3,5 1 
 x3 E3,6 1 
 x3 E3,8 1 
 x3 E3,9 1 
 x3 E3,10 1 
 x3 E3,11 1 
 x3 S2,7,3 1
 x3 C2,3 1 
 x3 C3,7 1 
 x4 cost 1
 x4 E2,4 1 
 x4 E3,4 1 
 x4 E4,5 1 
 x4 E4,6 1 
 x4 E4,7 1 
 x4 E4,8 1 
 x4 E4,9 1 
 x4 E4,10 1 
 x4 S0,1,4 1
 x4 S0,11,4 1
 x4 S4,6,1 1
 x4 C0,4 1 
 x4 C1,4 1 
 x4 C4,11 1 
 x5 cost 1
 x5 E0,5 1 
 x5 E1,5 1 
 x5 E2,5 1 
 x5 E3,5 1 
 x5 E4,5 1 
 x5 E5,6 1 
 x5 E5,7 1 
 x5 E5,8 1 
 x5 E5,9 1 
 x5 E5,10 1 
 x5 E5,11 1 
 x6 cost 1
 x6 E0,6 1 
 x6 E2,6 1 
 x6 E3,6 1 
 x6 E4,6 1 
 x6 E5,6 1 
 x6 E6,7 1 
 x6 E6,8 1 
 x6 E6,9 1 
 x6 E6,10 1 
 x6 E6,11 1 
 x6 S4,6,1 1
 x6 S6,11,1 1
 x6 C1,6 1 
 x7 cost 1
 x7 E0,7 1 
 x7 E1,7 1 
 x7 E2,7 1 
 x7 E4,7 1 
 x7 E5,7 1 
 x7 E6,7 1 
 x7 E7,8 1 
 x7 E7,9 1 
 x7 E7,10 1 
 x7 E7,11 1 
 x7 S2,7,3 1
 x7 C3,7 1 
 x8 cost 1
 x8 E0,8 1 
 x8 E1,8 1 
 x8 E2,8 1 
 x8 E3,8 1 
 x8 E4,8 1 
 x8 E5,8 1 
 x8 E6,8 1 
 x8 E7,8 1 
 x8 E8,9 1 
 x8 E8,10 1 
 x8 E8,11 1 
 x9 cost 1
 x9 E0,9 1 
 x9 E1,9 1 
 x9 E2,9 1 
 x9 E3,9 1 
 x9 E4,9 1 
 x9 E5,9 1 
 x9 E6,9 1 
 x9 E7,9 1 
 x9 E8,9 1 
 x9 E9,10 1 
 x9 E9,11 1 
 x10 cost 1
 x10 E0,10 1 
 x10 E1,10 1 
 x10 E2,10 1 
 x10 E3,10 1 
 x10 E4,10 1 
 x10 E5,10 1 
 x10 E6,10 1 
 x10 E7,10 1 
 x10 E8,10 1 
 x10 E9,10 1 
 x10 E10,11 1 
 x11 cost 1
 x11 E0,11 1 
 x11 E2,11 1 
 x11 E3,11 1 
 x11 E5,11 1 
 x11 E6,11 1 
 x11 E7,11 1 
 x11 E8,11 1 
 x11 E9,11 1 
 x11 E10,11 1 
 x11 S0,11,4 1
 x11 S6,11,1 1
 x11 C1,11 1 
 x11 C4,11 1 
RHS
 rhs KL 15
 rhs C0,4 1
 rhs C1,4 1
 rhs C1,6 1
 rhs C1,11 1
 rhs C2,3 1
 rhs C3,7 1
 rhs C4,11 1
 rhs S0,1,4 1
 rhs S0,11,4 1
 rhs S2,7,3 1
 rhs S4,6,1 1
 rhs S6,11,1 1
 rhs E0,1 1
 rhs I0,1 1
 rhs E0,2 1
 rhs I0,2 1
 rhs E0,3 1
 rhs I0,3 1
 rhs E0,5 1
 rhs I0,5 1
 rhs E0,6 1
 rhs I0,6 1
 rhs E0,7 1
 rhs I0,7 1
 rhs E0,8 1
 rhs I0,8 1
 rhs E0,9 1
 rhs I0,9 1
 rhs E0,10 1
 rhs I0,10 1
 rhs E0,11 1
 rhs I0,11 1
 rhs E1,2 1
 rhs I1,2 1
 rhs E1,3 1
 rhs I1,3 1
 rhs E1,5 1
 rhs I1,5 1
 rhs E1,7 1
 rhs I1,7 1
 rhs E1,8 1
 rhs I1,8 1
 rhs E1,9 1
 rhs I1,9 1
 rhs E1,10 1
 rhs I1,10 1
 rhs E2,4 1
 rhs I2,4 1
 rhs E2,5 1
 rhs I2,5 1
 rhs E2,6 1
 rhs I2,6 1
 rhs E2,7 1
 rhs I2,7 1
 rhs E2,8 1
 rhs I2,8 1
 rhs E2,9 1
 rhs I2,9 1
 rhs E2,10 1
 rhs I2,10 1
 rhs E2,11 1
 rhs I2,11 1
 rhs E3,4 1
 rhs I3,4 1
 rhs E3,5 1
 rhs I3,5 1
 rhs E3,6 1
 rhs I3,6 1
 rhs E3,8 1
 rhs I3,8 1
 rhs E3,9 1
 rhs I3,9 1
 rhs E3,10 1
 rhs I3,10 1
 rhs E3,11 1
 rhs I3,11 1
 rhs E4,5 1
 rhs I4,5 1
 rhs E4,6 1
 rhs I4,6 1
 rhs E4,7 1
 rhs I4,7 1
 rhs E4,8 1
 rhs I4,8 1
 rhs E4,9 1
 rhs I4,9 1
 rhs E4,10 1
 rhs I4,10 1
 rhs E5,6 1
 rhs I5,6 1
 rhs E5,7 1
 rhs I5,7 1
 rhs E5,8 1
 rhs I5,8 1
 rhs E5,9 1
 rhs I5,9 1
 rhs E5,10 1
 rhs I5,10 1
 rhs E5,11 1
 rhs I5,11 1
 rhs E6,7 1
 rhs I6,7 1
 rhs E6,8 1
 rhs I6,8 1
 rhs E6,9 1
 rhs I6,9 1
 rhs E6,10 1
 rhs I6,10 1
 rhs E6,11 1
 rhs I6,11 1
 rhs E7,8 1
 rhs I7,8 1
 rhs E7,9 1
 rhs I7,9 1
 rhs E7,10 1
 rhs I7,10 1
 rhs E7,11 1
 rhs I7,11 1
 rhs E8,9 1
 rhs I8,9 1
 rhs E8,10 1
 rhs I8,10 1
 rhs E8,11 1
 rhs I8,11 1
 rhs E9,10 1
 rhs I9,10 1
 rhs E9,11 1
 rhs I9,11 1
 rhs E10,11 1
 rhs I10,11 1
BOUNDS
 LI  bound  w0,1  0.0000000
 UI  bound  w0,1  1.0000000
 LI  bound  y0,1  0.0000000
 UI  bound  y0,1  1.0000000
 LI  bound  w0,2  0.0000000
 UI  bound  w0,2  1.0000000
 LI  bound  y0,2  0.0000000
 UI  bound  y0,2  1.0000000
 LI  bound  w0,3  0.0000000
 UI  bound  w0,3  1.0000000
 LI  bound  y0,3  0.0000000
 UI  bound  y0,3  1.0000000
 LI  bound  w0,5  0.0000000
 UI  bound  w0,5  1.0000000
 LI  bound  y0,5  0.0000000
 UI  bound  y0,5  1.0000000
 LI  bound  w0,6  0.0000000
 UI  bound  w0,6  1.0000000
 LI  bound  y0,6  0.0000000
 UI  bound  y0,6  1.0000000
 LI  bound  w0,7  0.0000000
 UI  bound  w0,7  1.0000000
 LI  bound  y0,7  0.0000000
 UI  bound  y0,7  1.0000000
 LI  bound  w0,8  0.0000000
 UI  bound  w0,8  1.0000000
 LI  bound  y0,8  0.0000000
 UI  bound  y0,8  1.0000000
 LI  bound  w0,9  0.0000000
 UI  bound  w0,9  1.0000000
 LI  bound  y0,9  0.0000000
 UI  bound  y0,9  1.0000000
 LI  bound  w0,10  0.0000000
 UI  bound  w0,10  1.0000000
 LI  bound  y0,10  0.0000000
 UI  bound  y0,10  1.0000000
 LI  bound  w0,11  0.0000000
 UI  bound  w0,11  1.0000000
 LI  bound  y0,11  0.0000000
 UI  bound  y0,11  1.0000000
 LI  bound  w1,2  0.0000000
 UI  bound  w1,2  1.0000000
 LI  bound  y1,2  0.0000000
 UI  bound  y1,2  1.0000000
 LI  bound  w1,3  0.0000000
 UI  bound  w1,3  1.0000000
 LI  bound  y1,3  0.0000000
 UI  bound  y1,3  1.0000000
 LI  bound  w1,5  0.0000000
 UI  bound  w1,5  1.0000000
 LI  bound  y1,5  0.0000000
 UI  bound  y1,5  1.0000000
 LI  bound  w1,7  0.0000000
 UI  bound  w1,7  1.0000000
 LI  bound  y1,7  0.0000000
 UI  bound  y1,7  1.0000000
 LI  bound  w1,8  0.0000000
 UI  bound  w1,8  1.0000000
 LI  bound  y1,8  0.0000000
 UI  bound  y1,8  1.0000000
 LI  bound  w1,9  0.0000000
 UI  bound  w1,9  1.0000000
 LI  bound  y1,9  0.0000000
 UI  bound  y1,9  1.0000000
 LI  bound  w1,10  0.0000000
 UI  bound  w1,10  1.0000000
 LI  bound  y1,10  0.0000000
 UI  bound  y1,10  1.0000000
 LI  bound  w2,4  0.0000000
 UI  bound  w2,4  1.0000000
 LI  bound  y2,4  0.0000000
 UI  bound  y2,4  1.0000000
 LI  bound  w2,5  0.0000000
 UI  bound  w2,5  1.0000000
 LI  bound  y2,5  0.0000000
 UI  bound  y2,5  1.0000000
 LI  bound  w2,6  0.0000000
 UI  bound  w2,6  1.0000000
 LI  bound  y2,6  0.0000000
 UI  bound  y2,6  1.0000000
 LI  bound  w2,7  0.0000000
 UI  bound  w2,7  1.0000000
 LI  bound  y2,7  0.0000000
 UI  bound  y2,7  1.0000000
 LI  bound  w2,8  0.0000000
 UI  bound  w2,8  1.0000000
 LI  bound  y2,8  0.0000000
 UI  bound  y2,8  1.0000000
 LI  bound  w2,9  0.0000000
 UI  bound  w2,9  1.0000000
 LI  bound  y2,9  0.0000000
 UI  bound  y2,9  1.0000000
 LI  bound  w2,10  0.0000000
 UI  bound  w2,10  1.0000000
 LI  bound  y2,10  0.0000000
 UI  bound  y2,10  1.0000000
 LI  bound  w2,11  0.0000000
 UI  bound  w2,11  1.0000000
 LI  bound  y2,11  0.0000000
 UI  bound  y2,11  1.0000000
 LI  bound  w3,4  0.0000000
 UI  bound  w3,4  1.0000000
 LI  bound  y3,4  0.0000000
 UI  bound  y3,4  1.0000000
 LI  bound  w3,5  0.0000000
 UI  bound  w3,5  1.0000000
 LI  bound  y3,5  0.0000000
 UI  bound  y3,5  1.0000000
 LI  bound  w3,6  0.0000000
 UI  bound  w3,6  1.0000000
 LI  bound  y3,6  0.0000000
 UI  bound  y3,6  1.0000000
 LI  bound  w3,8  0.0000000
 UI  bound  w3,8  1.0000000
 LI  bound  y3,8  0.0000000
 UI  bound  y3,8  1.0000000
 LI  bound  w3,9  0.0000000
 UI  bound  w3,9  1.0000000
 LI  bound  y3,9  0.0000000
 UI  bound  y3,9  1.0000000
 LI  bound  w3,10  0.0000000
 UI  bound  w3,10  1.0000000
 LI  bound  y3,10  0.0000000
 UI  bound  y3,10  1.0000000
 LI  bound  w3,11  0.0000000
 UI  bound  w3,11  1.0000000
 LI  bound  y3,11  0.0000000
 UI  bound  y3,11  1.0000000
 LI  bound  w4,5  0.0000000
 UI  bound  w4,5  1.0000000
 LI  bound  y4,5  0.0000000
 UI  bound  y4,5  1.0000000
 LI  bound  w4,6  0.0000000
 UI  bound  w4,6  1.0000000
 LI  bound  y4,6  0.0000000
 UI  bound  y4,6  1.0000000
 LI  bound  w4,7  0.0000000
 UI  bound  w4,7  1.0000000
 LI  bound  y4,7  0.0000000
 UI  bound  y4,7  1.0000000
 LI  bound  w4,8  0.0000000
 UI  bound  w4,8  1.0000000
 LI  bound  y4,8  0.0000000
 UI  bound  y4,8  1.0000000
 LI  bound  w4,9  0.0000000
 UI  bound  w4,9  1.0000000
 LI  bound  y4,9  0.0000000
 UI  bound  y4,9  1.0000000
 LI  bound  w4,10  0.0000000
 UI  bound  w4,10  1.0000000
 LI  bound  y4,10  0.0000000
 UI  bound  y4,10  1.0000000
 LI  bound  w5,6  0.0000000
 UI  bound  w5,6  1.0000000
 LI  bound  y5,6  0.0000000
 UI  bound  y5,6  1.0000000
 LI  bound  w5,7  0.0000000
 UI  bound  w5,7  1.0000000
 LI  bound  y5,7  0.0000000
 UI  bound  y5,7  1.0000000
 LI  bound  w5,8  0.0000000
 UI  bound  w5,8  1.0000000
 LI  bound  y5,8  0.0000000
 UI  bound  y5,8  1.0000000
 LI  bound  w5,9  0.0000000
 UI  bound  w5,9  1.0000000
 LI  bound  y5,9  0.0000000
 UI  bound  y5,9  1.0000000
 LI  bound  w5,10  0.0000000
 UI  bound  w5,10  1.0000000
 LI  bound  y5,10  0.0000000
 UI  bound  y5,10  1.0000000
 LI  bound  w5,11  0.0000000
 UI  bound  w5,11  1.0000000
 LI  bound  y5,11  0.0000000
 UI  bound  y5,11  1.0000000
 LI  bound  w6,7  0.0000000
 UI  bound  w6,7  1.0000000
 LI  bound  y6,7  0.0000000
 UI  bound  y6,7  1.0000000
 LI  bound  w6,8  0.0000000
 UI  bound  w6,8  1.0000000
 LI  bound  y6,8  0.0000000
 UI  bound  y6,8  1.0000000
 LI  bound  w6,9  0.0000000
 UI  bound  w6,9  1.0000000
 LI  bound  y6,9  0.0000000
 UI  bound  y6,9  1.0000000
 LI  bound  w6,10  0.0000000
 UI  bound  w6,10  1.0000000
 LI  bound  y6,10  0.0000000
 UI  bound  y6,10  1.0000000
 LI  bound  w6,11  0.0000000
 UI  bound  w6,11  1.0000000
 LI  bound  y6,11  0.0000000
 UI  bound  y6,11  1.0000000
 LI  bound  w7,8  0.0000000
 UI  bound  w7,8  1.0000000
 LI  bound  y7,8  0.0000000
 UI  bound  y7,8  1.0000000
 LI  bound  w7,9  0.0000000
 UI  bound  w7,9  1.0000000
 LI  bound  y7,9  0.0000000
 UI  bound  y7,9  1.0000000
 LI  bound  w7,10  0.0000000
 UI  bound  w7,10  1.0000000
 LI  bound  y7,10  0.0000000
 UI  bound  y7,10  1.0000000
 LI  bound  w7,11  0.0000000
 UI  bound  w7,11  1.0000000
 LI  bound  y7,11  0.0000000
 UI  bound  y7,11  1.0000000
 LI  bound  w8,9  0.0000000
 UI  bound  w8,9  1.0000000
 LI  bound  y8,9  0.0000000
 UI  bound  y8,9  1.0000000
 LI  bound  w8,10  0.0000000
 UI  bound  w8,10  1.0000000
 LI  bound  y8,10  0.0000000
 UI  bound  y8,10  1.0000000
 LI  bound  w8,11  0.0000000
 UI  bound  w8,11  1.0000000
 LI  bound  y8,11  0.0000000
 UI  bound  y8,11  1.0000000
 LI  bound  w9,10  0.0000000
 UI  bound  w9,10  1.0000000
 LI  bound  y9,10  0.0000000
 UI  bound  y9,10  1.0000000
 LI  bound  w9,11  0.0000000
 UI  bound  w9,11  1.0000000
 LI  bound  y9,11  0.0000000
 UI  bound  y9,11  1.0000000
 LI  bound  w10,11  0.0000000
 UI  bound  w10,11  1.0000000
 LI  bound  y10,11  0.0000000
 UI  bound  y10,11  1.0000000
 LI  bound  x0  0.0000000
 UI  bound  x0  1.0000000
 LI  bound  x1  0.0000000
 UI  bound  x1  1.0000000
 LI  bound  x2  0.0000000
 UI  bound  x2  1.0000000
 LI  bound  x3  0.0000000
 UI  bound  x3  1.0000000
 LI  bound  x4  0.0000000
 UI  bound  x4  1.0000000
 LI  bound  x5  0.0000000
 UI  bound  x5  1.0000000
 LI  bound  x6  0.0000000
 UI  bound  x6  1.0000000
 LI  bound  x7  0.0000000
 UI  bound  x7  1.0000000
 LI  bound  x8  0.0000000
 UI  bound  x8  1.0000000
 LI  bound  x9  0.0000000
 UI  bound  x9  1.0000000
 LI  bound  x10  0.0000000
 UI  bound  x10  1.0000000
 LI  bound  x11  0.0000000
 UI  bound  x11  1.0000000
ENDATA